c *********************************
c * Circuit generated by BenCGen
c *
c * CarrySaveAdder_116_116_116_116_117
c *
c * Ports with 1 gate(s): 2
c * Ports with 2 gate(s): 581
c * Total gates: 583
c *********************************
p cnf 931 1979
1 583 0
-1 -583 0
1 -582 0
583 -582 0
-1 -583 582 0
582 -465 0
-582 465 0
1 117 -584 0
-1 117 584 0
1 -117 584 0
-1 -117 -584 0
584 233 -349 0
-584 233 349 0
584 -233 349 0
-584 -233 -349 0
233 -585 0
584 -585 0
-233 -584 585 0
117 -586 0
1 -586 0
-117 -1 586 0
-585 466 0
-586 466 0
585 586 -466 0
2 118 -587 0
-2 118 587 0
2 -118 587 0
-2 -118 -587 0
587 234 -350 0
-587 234 350 0
587 -234 350 0
-587 -234 -350 0
234 -588 0
587 -588 0
-234 -587 588 0
118 -589 0
2 -589 0
-118 -2 589 0
-588 467 0
-589 467 0
588 589 -467 0
3 119 -590 0
-3 119 590 0
3 -119 590 0
-3 -119 -590 0
590 235 -351 0
-590 235 351 0
590 -235 351 0
-590 -235 -351 0
235 -591 0
590 -591 0
-235 -590 591 0
119 -592 0
3 -592 0
-119 -3 592 0
-591 468 0
-592 468 0
591 592 -468 0
4 120 -593 0
-4 120 593 0
4 -120 593 0
-4 -120 -593 0
593 236 -352 0
-593 236 352 0
593 -236 352 0
-593 -236 -352 0
236 -594 0
593 -594 0
-236 -593 594 0
120 -595 0
4 -595 0
-120 -4 595 0
-594 469 0
-595 469 0
594 595 -469 0
5 121 -596 0
-5 121 596 0
5 -121 596 0
-5 -121 -596 0
596 237 -353 0
-596 237 353 0
596 -237 353 0
-596 -237 -353 0
237 -597 0
596 -597 0
-237 -596 597 0
121 -598 0
5 -598 0
-121 -5 598 0
-597 470 0
-598 470 0
597 598 -470 0
6 122 -599 0
-6 122 599 0
6 -122 599 0
-6 -122 -599 0
599 238 -354 0
-599 238 354 0
599 -238 354 0
-599 -238 -354 0
238 -600 0
599 -600 0
-238 -599 600 0
122 -601 0
6 -601 0
-122 -6 601 0
-600 471 0
-601 471 0
600 601 -471 0
7 123 -602 0
-7 123 602 0
7 -123 602 0
-7 -123 -602 0
602 239 -355 0
-602 239 355 0
602 -239 355 0
-602 -239 -355 0
239 -603 0
602 -603 0
-239 -602 603 0
123 -604 0
7 -604 0
-123 -7 604 0
-603 472 0
-604 472 0
603 604 -472 0
8 124 -605 0
-8 124 605 0
8 -124 605 0
-8 -124 -605 0
605 240 -356 0
-605 240 356 0
605 -240 356 0
-605 -240 -356 0
240 -606 0
605 -606 0
-240 -605 606 0
124 -607 0
8 -607 0
-124 -8 607 0
-606 473 0
-607 473 0
606 607 -473 0
9 125 -608 0
-9 125 608 0
9 -125 608 0
-9 -125 -608 0
608 241 -357 0
-608 241 357 0
608 -241 357 0
-608 -241 -357 0
241 -609 0
608 -609 0
-241 -608 609 0
125 -610 0
9 -610 0
-125 -9 610 0
-609 474 0
-610 474 0
609 610 -474 0
10 126 -611 0
-10 126 611 0
10 -126 611 0
-10 -126 -611 0
611 242 -358 0
-611 242 358 0
611 -242 358 0
-611 -242 -358 0
242 -612 0
611 -612 0
-242 -611 612 0
126 -613 0
10 -613 0
-126 -10 613 0
-612 475 0
-613 475 0
612 613 -475 0
11 127 -614 0
-11 127 614 0
11 -127 614 0
-11 -127 -614 0
614 243 -359 0
-614 243 359 0
614 -243 359 0
-614 -243 -359 0
243 -615 0
614 -615 0
-243 -614 615 0
127 -616 0
11 -616 0
-127 -11 616 0
-615 476 0
-616 476 0
615 616 -476 0
12 128 -617 0
-12 128 617 0
12 -128 617 0
-12 -128 -617 0
617 244 -360 0
-617 244 360 0
617 -244 360 0
-617 -244 -360 0
244 -618 0
617 -618 0
-244 -617 618 0
128 -619 0
12 -619 0
-128 -12 619 0
-618 477 0
-619 477 0
618 619 -477 0
13 129 -620 0
-13 129 620 0
13 -129 620 0
-13 -129 -620 0
620 245 -361 0
-620 245 361 0
620 -245 361 0
-620 -245 -361 0
245 -621 0
620 -621 0
-245 -620 621 0
129 -622 0
13 -622 0
-129 -13 622 0
-621 478 0
-622 478 0
621 622 -478 0
14 130 -623 0
-14 130 623 0
14 -130 623 0
-14 -130 -623 0
623 246 -362 0
-623 246 362 0
623 -246 362 0
-623 -246 -362 0
246 -624 0
623 -624 0
-246 -623 624 0
130 -625 0
14 -625 0
-130 -14 625 0
-624 479 0
-625 479 0
624 625 -479 0
15 131 -626 0
-15 131 626 0
15 -131 626 0
-15 -131 -626 0
626 247 -363 0
-626 247 363 0
626 -247 363 0
-626 -247 -363 0
247 -627 0
626 -627 0
-247 -626 627 0
131 -628 0
15 -628 0
-131 -15 628 0
-627 480 0
-628 480 0
627 628 -480 0
16 132 -629 0
-16 132 629 0
16 -132 629 0
-16 -132 -629 0
629 248 -364 0
-629 248 364 0
629 -248 364 0
-629 -248 -364 0
248 -630 0
629 -630 0
-248 -629 630 0
132 -631 0
16 -631 0
-132 -16 631 0
-630 481 0
-631 481 0
630 631 -481 0
17 133 -632 0
-17 133 632 0
17 -133 632 0
-17 -133 -632 0
632 249 -365 0
-632 249 365 0
632 -249 365 0
-632 -249 -365 0
249 -633 0
632 -633 0
-249 -632 633 0
133 -634 0
17 -634 0
-133 -17 634 0
-633 482 0
-634 482 0
633 634 -482 0
18 134 -635 0
-18 134 635 0
18 -134 635 0
-18 -134 -635 0
635 250 -366 0
-635 250 366 0
635 -250 366 0
-635 -250 -366 0
250 -636 0
635 -636 0
-250 -635 636 0
134 -637 0
18 -637 0
-134 -18 637 0
-636 483 0
-637 483 0
636 637 -483 0
19 135 -638 0
-19 135 638 0
19 -135 638 0
-19 -135 -638 0
638 251 -367 0
-638 251 367 0
638 -251 367 0
-638 -251 -367 0
251 -639 0
638 -639 0
-251 -638 639 0
135 -640 0
19 -640 0
-135 -19 640 0
-639 484 0
-640 484 0
639 640 -484 0
20 136 -641 0
-20 136 641 0
20 -136 641 0
-20 -136 -641 0
641 252 -368 0
-641 252 368 0
641 -252 368 0
-641 -252 -368 0
252 -642 0
641 -642 0
-252 -641 642 0
136 -643 0
20 -643 0
-136 -20 643 0
-642 485 0
-643 485 0
642 643 -485 0
21 137 -644 0
-21 137 644 0
21 -137 644 0
-21 -137 -644 0
644 253 -369 0
-644 253 369 0
644 -253 369 0
-644 -253 -369 0
253 -645 0
644 -645 0
-253 -644 645 0
137 -646 0
21 -646 0
-137 -21 646 0
-645 486 0
-646 486 0
645 646 -486 0
22 138 -647 0
-22 138 647 0
22 -138 647 0
-22 -138 -647 0
647 254 -370 0
-647 254 370 0
647 -254 370 0
-647 -254 -370 0
254 -648 0
647 -648 0
-254 -647 648 0
138 -649 0
22 -649 0
-138 -22 649 0
-648 487 0
-649 487 0
648 649 -487 0
23 139 -650 0
-23 139 650 0
23 -139 650 0
-23 -139 -650 0
650 255 -371 0
-650 255 371 0
650 -255 371 0
-650 -255 -371 0
255 -651 0
650 -651 0
-255 -650 651 0
139 -652 0
23 -652 0
-139 -23 652 0
-651 488 0
-652 488 0
651 652 -488 0
24 140 -653 0
-24 140 653 0
24 -140 653 0
-24 -140 -653 0
653 256 -372 0
-653 256 372 0
653 -256 372 0
-653 -256 -372 0
256 -654 0
653 -654 0
-256 -653 654 0
140 -655 0
24 -655 0
-140 -24 655 0
-654 489 0
-655 489 0
654 655 -489 0
25 141 -656 0
-25 141 656 0
25 -141 656 0
-25 -141 -656 0
656 257 -373 0
-656 257 373 0
656 -257 373 0
-656 -257 -373 0
257 -657 0
656 -657 0
-257 -656 657 0
141 -658 0
25 -658 0
-141 -25 658 0
-657 490 0
-658 490 0
657 658 -490 0
26 142 -659 0
-26 142 659 0
26 -142 659 0
-26 -142 -659 0
659 258 -374 0
-659 258 374 0
659 -258 374 0
-659 -258 -374 0
258 -660 0
659 -660 0
-258 -659 660 0
142 -661 0
26 -661 0
-142 -26 661 0
-660 491 0
-661 491 0
660 661 -491 0
27 143 -662 0
-27 143 662 0
27 -143 662 0
-27 -143 -662 0
662 259 -375 0
-662 259 375 0
662 -259 375 0
-662 -259 -375 0
259 -663 0
662 -663 0
-259 -662 663 0
143 -664 0
27 -664 0
-143 -27 664 0
-663 492 0
-664 492 0
663 664 -492 0
28 144 -665 0
-28 144 665 0
28 -144 665 0
-28 -144 -665 0
665 260 -376 0
-665 260 376 0
665 -260 376 0
-665 -260 -376 0
260 -666 0
665 -666 0
-260 -665 666 0
144 -667 0
28 -667 0
-144 -28 667 0
-666 493 0
-667 493 0
666 667 -493 0
29 145 -668 0
-29 145 668 0
29 -145 668 0
-29 -145 -668 0
668 261 -377 0
-668 261 377 0
668 -261 377 0
-668 -261 -377 0
261 -669 0
668 -669 0
-261 -668 669 0
145 -670 0
29 -670 0
-145 -29 670 0
-669 494 0
-670 494 0
669 670 -494 0
30 146 -671 0
-30 146 671 0
30 -146 671 0
-30 -146 -671 0
671 262 -378 0
-671 262 378 0
671 -262 378 0
-671 -262 -378 0
262 -672 0
671 -672 0
-262 -671 672 0
146 -673 0
30 -673 0
-146 -30 673 0
-672 495 0
-673 495 0
672 673 -495 0
31 147 -674 0
-31 147 674 0
31 -147 674 0
-31 -147 -674 0
674 263 -379 0
-674 263 379 0
674 -263 379 0
-674 -263 -379 0
263 -675 0
674 -675 0
-263 -674 675 0
147 -676 0
31 -676 0
-147 -31 676 0
-675 496 0
-676 496 0
675 676 -496 0
32 148 -677 0
-32 148 677 0
32 -148 677 0
-32 -148 -677 0
677 264 -380 0
-677 264 380 0
677 -264 380 0
-677 -264 -380 0
264 -678 0
677 -678 0
-264 -677 678 0
148 -679 0
32 -679 0
-148 -32 679 0
-678 497 0
-679 497 0
678 679 -497 0
33 149 -680 0
-33 149 680 0
33 -149 680 0
-33 -149 -680 0
680 265 -381 0
-680 265 381 0
680 -265 381 0
-680 -265 -381 0
265 -681 0
680 -681 0
-265 -680 681 0
149 -682 0
33 -682 0
-149 -33 682 0
-681 498 0
-682 498 0
681 682 -498 0
34 150 -683 0
-34 150 683 0
34 -150 683 0
-34 -150 -683 0
683 266 -382 0
-683 266 382 0
683 -266 382 0
-683 -266 -382 0
266 -684 0
683 -684 0
-266 -683 684 0
150 -685 0
34 -685 0
-150 -34 685 0
-684 499 0
-685 499 0
684 685 -499 0
35 151 -686 0
-35 151 686 0
35 -151 686 0
-35 -151 -686 0
686 267 -383 0
-686 267 383 0
686 -267 383 0
-686 -267 -383 0
267 -687 0
686 -687 0
-267 -686 687 0
151 -688 0
35 -688 0
-151 -35 688 0
-687 500 0
-688 500 0
687 688 -500 0
36 152 -689 0
-36 152 689 0
36 -152 689 0
-36 -152 -689 0
689 268 -384 0
-689 268 384 0
689 -268 384 0
-689 -268 -384 0
268 -690 0
689 -690 0
-268 -689 690 0
152 -691 0
36 -691 0
-152 -36 691 0
-690 501 0
-691 501 0
690 691 -501 0
37 153 -692 0
-37 153 692 0
37 -153 692 0
-37 -153 -692 0
692 269 -385 0
-692 269 385 0
692 -269 385 0
-692 -269 -385 0
269 -693 0
692 -693 0
-269 -692 693 0
153 -694 0
37 -694 0
-153 -37 694 0
-693 502 0
-694 502 0
693 694 -502 0
38 154 -695 0
-38 154 695 0
38 -154 695 0
-38 -154 -695 0
695 270 -386 0
-695 270 386 0
695 -270 386 0
-695 -270 -386 0
270 -696 0
695 -696 0
-270 -695 696 0
154 -697 0
38 -697 0
-154 -38 697 0
-696 503 0
-697 503 0
696 697 -503 0
39 155 -698 0
-39 155 698 0
39 -155 698 0
-39 -155 -698 0
698 271 -387 0
-698 271 387 0
698 -271 387 0
-698 -271 -387 0
271 -699 0
698 -699 0
-271 -698 699 0
155 -700 0
39 -700 0
-155 -39 700 0
-699 504 0
-700 504 0
699 700 -504 0
40 156 -701 0
-40 156 701 0
40 -156 701 0
-40 -156 -701 0
701 272 -388 0
-701 272 388 0
701 -272 388 0
-701 -272 -388 0
272 -702 0
701 -702 0
-272 -701 702 0
156 -703 0
40 -703 0
-156 -40 703 0
-702 505 0
-703 505 0
702 703 -505 0
41 157 -704 0
-41 157 704 0
41 -157 704 0
-41 -157 -704 0
704 273 -389 0
-704 273 389 0
704 -273 389 0
-704 -273 -389 0
273 -705 0
704 -705 0
-273 -704 705 0
157 -706 0
41 -706 0
-157 -41 706 0
-705 506 0
-706 506 0
705 706 -506 0
42 158 -707 0
-42 158 707 0
42 -158 707 0
-42 -158 -707 0
707 274 -390 0
-707 274 390 0
707 -274 390 0
-707 -274 -390 0
274 -708 0
707 -708 0
-274 -707 708 0
158 -709 0
42 -709 0
-158 -42 709 0
-708 507 0
-709 507 0
708 709 -507 0
43 159 -710 0
-43 159 710 0
43 -159 710 0
-43 -159 -710 0
710 275 -391 0
-710 275 391 0
710 -275 391 0
-710 -275 -391 0
275 -711 0
710 -711 0
-275 -710 711 0
159 -712 0
43 -712 0
-159 -43 712 0
-711 508 0
-712 508 0
711 712 -508 0
44 160 -713 0
-44 160 713 0
44 -160 713 0
-44 -160 -713 0
713 276 -392 0
-713 276 392 0
713 -276 392 0
-713 -276 -392 0
276 -714 0
713 -714 0
-276 -713 714 0
160 -715 0
44 -715 0
-160 -44 715 0
-714 509 0
-715 509 0
714 715 -509 0
45 161 -716 0
-45 161 716 0
45 -161 716 0
-45 -161 -716 0
716 277 -393 0
-716 277 393 0
716 -277 393 0
-716 -277 -393 0
277 -717 0
716 -717 0
-277 -716 717 0
161 -718 0
45 -718 0
-161 -45 718 0
-717 510 0
-718 510 0
717 718 -510 0
46 162 -719 0
-46 162 719 0
46 -162 719 0
-46 -162 -719 0
719 278 -394 0
-719 278 394 0
719 -278 394 0
-719 -278 -394 0
278 -720 0
719 -720 0
-278 -719 720 0
162 -721 0
46 -721 0
-162 -46 721 0
-720 511 0
-721 511 0
720 721 -511 0
47 163 -722 0
-47 163 722 0
47 -163 722 0
-47 -163 -722 0
722 279 -395 0
-722 279 395 0
722 -279 395 0
-722 -279 -395 0
279 -723 0
722 -723 0
-279 -722 723 0
163 -724 0
47 -724 0
-163 -47 724 0
-723 512 0
-724 512 0
723 724 -512 0
48 164 -725 0
-48 164 725 0
48 -164 725 0
-48 -164 -725 0
725 280 -396 0
-725 280 396 0
725 -280 396 0
-725 -280 -396 0
280 -726 0
725 -726 0
-280 -725 726 0
164 -727 0
48 -727 0
-164 -48 727 0
-726 513 0
-727 513 0
726 727 -513 0
49 165 -728 0
-49 165 728 0
49 -165 728 0
-49 -165 -728 0
728 281 -397 0
-728 281 397 0
728 -281 397 0
-728 -281 -397 0
281 -729 0
728 -729 0
-281 -728 729 0
165 -730 0
49 -730 0
-165 -49 730 0
-729 514 0
-730 514 0
729 730 -514 0
50 166 -731 0
-50 166 731 0
50 -166 731 0
-50 -166 -731 0
731 282 -398 0
-731 282 398 0
731 -282 398 0
-731 -282 -398 0
282 -732 0
731 -732 0
-282 -731 732 0
166 -733 0
50 -733 0
-166 -50 733 0
-732 515 0
-733 515 0
732 733 -515 0
51 167 -734 0
-51 167 734 0
51 -167 734 0
-51 -167 -734 0
734 283 -399 0
-734 283 399 0
734 -283 399 0
-734 -283 -399 0
283 -735 0
734 -735 0
-283 -734 735 0
167 -736 0
51 -736 0
-167 -51 736 0
-735 516 0
-736 516 0
735 736 -516 0
52 168 -737 0
-52 168 737 0
52 -168 737 0
-52 -168 -737 0
737 284 -400 0
-737 284 400 0
737 -284 400 0
-737 -284 -400 0
284 -738 0
737 -738 0
-284 -737 738 0
168 -739 0
52 -739 0
-168 -52 739 0
-738 517 0
-739 517 0
738 739 -517 0
53 169 -740 0
-53 169 740 0
53 -169 740 0
-53 -169 -740 0
740 285 -401 0
-740 285 401 0
740 -285 401 0
-740 -285 -401 0
285 -741 0
740 -741 0
-285 -740 741 0
169 -742 0
53 -742 0
-169 -53 742 0
-741 518 0
-742 518 0
741 742 -518 0
54 170 -743 0
-54 170 743 0
54 -170 743 0
-54 -170 -743 0
743 286 -402 0
-743 286 402 0
743 -286 402 0
-743 -286 -402 0
286 -744 0
743 -744 0
-286 -743 744 0
170 -745 0
54 -745 0
-170 -54 745 0
-744 519 0
-745 519 0
744 745 -519 0
55 171 -746 0
-55 171 746 0
55 -171 746 0
-55 -171 -746 0
746 287 -403 0
-746 287 403 0
746 -287 403 0
-746 -287 -403 0
287 -747 0
746 -747 0
-287 -746 747 0
171 -748 0
55 -748 0
-171 -55 748 0
-747 520 0
-748 520 0
747 748 -520 0
56 172 -749 0
-56 172 749 0
56 -172 749 0
-56 -172 -749 0
749 288 -404 0
-749 288 404 0
749 -288 404 0
-749 -288 -404 0
288 -750 0
749 -750 0
-288 -749 750 0
172 -751 0
56 -751 0
-172 -56 751 0
-750 521 0
-751 521 0
750 751 -521 0
57 173 -752 0
-57 173 752 0
57 -173 752 0
-57 -173 -752 0
752 289 -405 0
-752 289 405 0
752 -289 405 0
-752 -289 -405 0
289 -753 0
752 -753 0
-289 -752 753 0
173 -754 0
57 -754 0
-173 -57 754 0
-753 522 0
-754 522 0
753 754 -522 0
58 174 -755 0
-58 174 755 0
58 -174 755 0
-58 -174 -755 0
755 290 -406 0
-755 290 406 0
755 -290 406 0
-755 -290 -406 0
290 -756 0
755 -756 0
-290 -755 756 0
174 -757 0
58 -757 0
-174 -58 757 0
-756 523 0
-757 523 0
756 757 -523 0
59 175 -758 0
-59 175 758 0
59 -175 758 0
-59 -175 -758 0
758 291 -407 0
-758 291 407 0
758 -291 407 0
-758 -291 -407 0
291 -759 0
758 -759 0
-291 -758 759 0
175 -760 0
59 -760 0
-175 -59 760 0
-759 524 0
-760 524 0
759 760 -524 0
60 176 -761 0
-60 176 761 0
60 -176 761 0
-60 -176 -761 0
761 292 -408 0
-761 292 408 0
761 -292 408 0
-761 -292 -408 0
292 -762 0
761 -762 0
-292 -761 762 0
176 -763 0
60 -763 0
-176 -60 763 0
-762 525 0
-763 525 0
762 763 -525 0
61 177 -764 0
-61 177 764 0
61 -177 764 0
-61 -177 -764 0
764 293 -409 0
-764 293 409 0
764 -293 409 0
-764 -293 -409 0
293 -765 0
764 -765 0
-293 -764 765 0
177 -766 0
61 -766 0
-177 -61 766 0
-765 526 0
-766 526 0
765 766 -526 0
62 178 -767 0
-62 178 767 0
62 -178 767 0
-62 -178 -767 0
767 294 -410 0
-767 294 410 0
767 -294 410 0
-767 -294 -410 0
294 -768 0
767 -768 0
-294 -767 768 0
178 -769 0
62 -769 0
-178 -62 769 0
-768 527 0
-769 527 0
768 769 -527 0
63 179 -770 0
-63 179 770 0
63 -179 770 0
-63 -179 -770 0
770 295 -411 0
-770 295 411 0
770 -295 411 0
-770 -295 -411 0
295 -771 0
770 -771 0
-295 -770 771 0
179 -772 0
63 -772 0
-179 -63 772 0
-771 528 0
-772 528 0
771 772 -528 0
64 180 -773 0
-64 180 773 0
64 -180 773 0
-64 -180 -773 0
773 296 -412 0
-773 296 412 0
773 -296 412 0
-773 -296 -412 0
296 -774 0
773 -774 0
-296 -773 774 0
180 -775 0
64 -775 0
-180 -64 775 0
-774 529 0
-775 529 0
774 775 -529 0
65 181 -776 0
-65 181 776 0
65 -181 776 0
-65 -181 -776 0
776 297 -413 0
-776 297 413 0
776 -297 413 0
-776 -297 -413 0
297 -777 0
776 -777 0
-297 -776 777 0
181 -778 0
65 -778 0
-181 -65 778 0
-777 530 0
-778 530 0
777 778 -530 0
66 182 -779 0
-66 182 779 0
66 -182 779 0
-66 -182 -779 0
779 298 -414 0
-779 298 414 0
779 -298 414 0
-779 -298 -414 0
298 -780 0
779 -780 0
-298 -779 780 0
182 -781 0
66 -781 0
-182 -66 781 0
-780 531 0
-781 531 0
780 781 -531 0
67 183 -782 0
-67 183 782 0
67 -183 782 0
-67 -183 -782 0
782 299 -415 0
-782 299 415 0
782 -299 415 0
-782 -299 -415 0
299 -783 0
782 -783 0
-299 -782 783 0
183 -784 0
67 -784 0
-183 -67 784 0
-783 532 0
-784 532 0
783 784 -532 0
68 184 -785 0
-68 184 785 0
68 -184 785 0
-68 -184 -785 0
785 300 -416 0
-785 300 416 0
785 -300 416 0
-785 -300 -416 0
300 -786 0
785 -786 0
-300 -785 786 0
184 -787 0
68 -787 0
-184 -68 787 0
-786 533 0
-787 533 0
786 787 -533 0
69 185 -788 0
-69 185 788 0
69 -185 788 0
-69 -185 -788 0
788 301 -417 0
-788 301 417 0
788 -301 417 0
-788 -301 -417 0
301 -789 0
788 -789 0
-301 -788 789 0
185 -790 0
69 -790 0
-185 -69 790 0
-789 534 0
-790 534 0
789 790 -534 0
70 186 -791 0
-70 186 791 0
70 -186 791 0
-70 -186 -791 0
791 302 -418 0
-791 302 418 0
791 -302 418 0
-791 -302 -418 0
302 -792 0
791 -792 0
-302 -791 792 0
186 -793 0
70 -793 0
-186 -70 793 0
-792 535 0
-793 535 0
792 793 -535 0
71 187 -794 0
-71 187 794 0
71 -187 794 0
-71 -187 -794 0
794 303 -419 0
-794 303 419 0
794 -303 419 0
-794 -303 -419 0
303 -795 0
794 -795 0
-303 -794 795 0
187 -796 0
71 -796 0
-187 -71 796 0
-795 536 0
-796 536 0
795 796 -536 0
72 188 -797 0
-72 188 797 0
72 -188 797 0
-72 -188 -797 0
797 304 -420 0
-797 304 420 0
797 -304 420 0
-797 -304 -420 0
304 -798 0
797 -798 0
-304 -797 798 0
188 -799 0
72 -799 0
-188 -72 799 0
-798 537 0
-799 537 0
798 799 -537 0
73 189 -800 0
-73 189 800 0
73 -189 800 0
-73 -189 -800 0
800 305 -421 0
-800 305 421 0
800 -305 421 0
-800 -305 -421 0
305 -801 0
800 -801 0
-305 -800 801 0
189 -802 0
73 -802 0
-189 -73 802 0
-801 538 0
-802 538 0
801 802 -538 0
74 190 -803 0
-74 190 803 0
74 -190 803 0
-74 -190 -803 0
803 306 -422 0
-803 306 422 0
803 -306 422 0
-803 -306 -422 0
306 -804 0
803 -804 0
-306 -803 804 0
190 -805 0
74 -805 0
-190 -74 805 0
-804 539 0
-805 539 0
804 805 -539 0
75 191 -806 0
-75 191 806 0
75 -191 806 0
-75 -191 -806 0
806 307 -423 0
-806 307 423 0
806 -307 423 0
-806 -307 -423 0
307 -807 0
806 -807 0
-307 -806 807 0
191 -808 0
75 -808 0
-191 -75 808 0
-807 540 0
-808 540 0
807 808 -540 0
76 192 -809 0
-76 192 809 0
76 -192 809 0
-76 -192 -809 0
809 308 -424 0
-809 308 424 0
809 -308 424 0
-809 -308 -424 0
308 -810 0
809 -810 0
-308 -809 810 0
192 -811 0
76 -811 0
-192 -76 811 0
-810 541 0
-811 541 0
810 811 -541 0
77 193 -812 0
-77 193 812 0
77 -193 812 0
-77 -193 -812 0
812 309 -425 0
-812 309 425 0
812 -309 425 0
-812 -309 -425 0
309 -813 0
812 -813 0
-309 -812 813 0
193 -814 0
77 -814 0
-193 -77 814 0
-813 542 0
-814 542 0
813 814 -542 0
78 194 -815 0
-78 194 815 0
78 -194 815 0
-78 -194 -815 0
815 310 -426 0
-815 310 426 0
815 -310 426 0
-815 -310 -426 0
310 -816 0
815 -816 0
-310 -815 816 0
194 -817 0
78 -817 0
-194 -78 817 0
-816 543 0
-817 543 0
816 817 -543 0
79 195 -818 0
-79 195 818 0
79 -195 818 0
-79 -195 -818 0
818 311 -427 0
-818 311 427 0
818 -311 427 0
-818 -311 -427 0
311 -819 0
818 -819 0
-311 -818 819 0
195 -820 0
79 -820 0
-195 -79 820 0
-819 544 0
-820 544 0
819 820 -544 0
80 196 -821 0
-80 196 821 0
80 -196 821 0
-80 -196 -821 0
821 312 -428 0
-821 312 428 0
821 -312 428 0
-821 -312 -428 0
312 -822 0
821 -822 0
-312 -821 822 0
196 -823 0
80 -823 0
-196 -80 823 0
-822 545 0
-823 545 0
822 823 -545 0
81 197 -824 0
-81 197 824 0
81 -197 824 0
-81 -197 -824 0
824 313 -429 0
-824 313 429 0
824 -313 429 0
-824 -313 -429 0
313 -825 0
824 -825 0
-313 -824 825 0
197 -826 0
81 -826 0
-197 -81 826 0
-825 546 0
-826 546 0
825 826 -546 0
82 198 -827 0
-82 198 827 0
82 -198 827 0
-82 -198 -827 0
827 314 -430 0
-827 314 430 0
827 -314 430 0
-827 -314 -430 0
314 -828 0
827 -828 0
-314 -827 828 0
198 -829 0
82 -829 0
-198 -82 829 0
-828 547 0
-829 547 0
828 829 -547 0
83 199 -830 0
-83 199 830 0
83 -199 830 0
-83 -199 -830 0
830 315 -431 0
-830 315 431 0
830 -315 431 0
-830 -315 -431 0
315 -831 0
830 -831 0
-315 -830 831 0
199 -832 0
83 -832 0
-199 -83 832 0
-831 548 0
-832 548 0
831 832 -548 0
84 200 -833 0
-84 200 833 0
84 -200 833 0
-84 -200 -833 0
833 316 -432 0
-833 316 432 0
833 -316 432 0
-833 -316 -432 0
316 -834 0
833 -834 0
-316 -833 834 0
200 -835 0
84 -835 0
-200 -84 835 0
-834 549 0
-835 549 0
834 835 -549 0
85 201 -836 0
-85 201 836 0
85 -201 836 0
-85 -201 -836 0
836 317 -433 0
-836 317 433 0
836 -317 433 0
-836 -317 -433 0
317 -837 0
836 -837 0
-317 -836 837 0
201 -838 0
85 -838 0
-201 -85 838 0
-837 550 0
-838 550 0
837 838 -550 0
86 202 -839 0
-86 202 839 0
86 -202 839 0
-86 -202 -839 0
839 318 -434 0
-839 318 434 0
839 -318 434 0
-839 -318 -434 0
318 -840 0
839 -840 0
-318 -839 840 0
202 -841 0
86 -841 0
-202 -86 841 0
-840 551 0
-841 551 0
840 841 -551 0
87 203 -842 0
-87 203 842 0
87 -203 842 0
-87 -203 -842 0
842 319 -435 0
-842 319 435 0
842 -319 435 0
-842 -319 -435 0
319 -843 0
842 -843 0
-319 -842 843 0
203 -844 0
87 -844 0
-203 -87 844 0
-843 552 0
-844 552 0
843 844 -552 0
88 204 -845 0
-88 204 845 0
88 -204 845 0
-88 -204 -845 0
845 320 -436 0
-845 320 436 0
845 -320 436 0
-845 -320 -436 0
320 -846 0
845 -846 0
-320 -845 846 0
204 -847 0
88 -847 0
-204 -88 847 0
-846 553 0
-847 553 0
846 847 -553 0
89 205 -848 0
-89 205 848 0
89 -205 848 0
-89 -205 -848 0
848 321 -437 0
-848 321 437 0
848 -321 437 0
-848 -321 -437 0
321 -849 0
848 -849 0
-321 -848 849 0
205 -850 0
89 -850 0
-205 -89 850 0
-849 554 0
-850 554 0
849 850 -554 0
90 206 -851 0
-90 206 851 0
90 -206 851 0
-90 -206 -851 0
851 322 -438 0
-851 322 438 0
851 -322 438 0
-851 -322 -438 0
322 -852 0
851 -852 0
-322 -851 852 0
206 -853 0
90 -853 0
-206 -90 853 0
-852 555 0
-853 555 0
852 853 -555 0
91 207 -854 0
-91 207 854 0
91 -207 854 0
-91 -207 -854 0
854 323 -439 0
-854 323 439 0
854 -323 439 0
-854 -323 -439 0
323 -855 0
854 -855 0
-323 -854 855 0
207 -856 0
91 -856 0
-207 -91 856 0
-855 556 0
-856 556 0
855 856 -556 0
92 208 -857 0
-92 208 857 0
92 -208 857 0
-92 -208 -857 0
857 324 -440 0
-857 324 440 0
857 -324 440 0
-857 -324 -440 0
324 -858 0
857 -858 0
-324 -857 858 0
208 -859 0
92 -859 0
-208 -92 859 0
-858 557 0
-859 557 0
858 859 -557 0
93 209 -860 0
-93 209 860 0
93 -209 860 0
-93 -209 -860 0
860 325 -441 0
-860 325 441 0
860 -325 441 0
-860 -325 -441 0
325 -861 0
860 -861 0
-325 -860 861 0
209 -862 0
93 -862 0
-209 -93 862 0
-861 558 0
-862 558 0
861 862 -558 0
94 210 -863 0
-94 210 863 0
94 -210 863 0
-94 -210 -863 0
863 326 -442 0
-863 326 442 0
863 -326 442 0
-863 -326 -442 0
326 -864 0
863 -864 0
-326 -863 864 0
210 -865 0
94 -865 0
-210 -94 865 0
-864 559 0
-865 559 0
864 865 -559 0
95 211 -866 0
-95 211 866 0
95 -211 866 0
-95 -211 -866 0
866 327 -443 0
-866 327 443 0
866 -327 443 0
-866 -327 -443 0
327 -867 0
866 -867 0
-327 -866 867 0
211 -868 0
95 -868 0
-211 -95 868 0
-867 560 0
-868 560 0
867 868 -560 0
96 212 -869 0
-96 212 869 0
96 -212 869 0
-96 -212 -869 0
869 328 -444 0
-869 328 444 0
869 -328 444 0
-869 -328 -444 0
328 -870 0
869 -870 0
-328 -869 870 0
212 -871 0
96 -871 0
-212 -96 871 0
-870 561 0
-871 561 0
870 871 -561 0
97 213 -872 0
-97 213 872 0
97 -213 872 0
-97 -213 -872 0
872 329 -445 0
-872 329 445 0
872 -329 445 0
-872 -329 -445 0
329 -873 0
872 -873 0
-329 -872 873 0
213 -874 0
97 -874 0
-213 -97 874 0
-873 562 0
-874 562 0
873 874 -562 0
98 214 -875 0
-98 214 875 0
98 -214 875 0
-98 -214 -875 0
875 330 -446 0
-875 330 446 0
875 -330 446 0
-875 -330 -446 0
330 -876 0
875 -876 0
-330 -875 876 0
214 -877 0
98 -877 0
-214 -98 877 0
-876 563 0
-877 563 0
876 877 -563 0
99 215 -878 0
-99 215 878 0
99 -215 878 0
-99 -215 -878 0
878 331 -447 0
-878 331 447 0
878 -331 447 0
-878 -331 -447 0
331 -879 0
878 -879 0
-331 -878 879 0
215 -880 0
99 -880 0
-215 -99 880 0
-879 564 0
-880 564 0
879 880 -564 0
100 216 -881 0
-100 216 881 0
100 -216 881 0
-100 -216 -881 0
881 332 -448 0
-881 332 448 0
881 -332 448 0
-881 -332 -448 0
332 -882 0
881 -882 0
-332 -881 882 0
216 -883 0
100 -883 0
-216 -100 883 0
-882 565 0
-883 565 0
882 883 -565 0
101 217 -884 0
-101 217 884 0
101 -217 884 0
-101 -217 -884 0
884 333 -449 0
-884 333 449 0
884 -333 449 0
-884 -333 -449 0
333 -885 0
884 -885 0
-333 -884 885 0
217 -886 0
101 -886 0
-217 -101 886 0
-885 566 0
-886 566 0
885 886 -566 0
102 218 -887 0
-102 218 887 0
102 -218 887 0
-102 -218 -887 0
887 334 -450 0
-887 334 450 0
887 -334 450 0
-887 -334 -450 0
334 -888 0
887 -888 0
-334 -887 888 0
218 -889 0
102 -889 0
-218 -102 889 0
-888 567 0
-889 567 0
888 889 -567 0
103 219 -890 0
-103 219 890 0
103 -219 890 0
-103 -219 -890 0
890 335 -451 0
-890 335 451 0
890 -335 451 0
-890 -335 -451 0
335 -891 0
890 -891 0
-335 -890 891 0
219 -892 0
103 -892 0
-219 -103 892 0
-891 568 0
-892 568 0
891 892 -568 0
104 220 -893 0
-104 220 893 0
104 -220 893 0
-104 -220 -893 0
893 336 -452 0
-893 336 452 0
893 -336 452 0
-893 -336 -452 0
336 -894 0
893 -894 0
-336 -893 894 0
220 -895 0
104 -895 0
-220 -104 895 0
-894 569 0
-895 569 0
894 895 -569 0
105 221 -896 0
-105 221 896 0
105 -221 896 0
-105 -221 -896 0
896 337 -453 0
-896 337 453 0
896 -337 453 0
-896 -337 -453 0
337 -897 0
896 -897 0
-337 -896 897 0
221 -898 0
105 -898 0
-221 -105 898 0
-897 570 0
-898 570 0
897 898 -570 0
106 222 -899 0
-106 222 899 0
106 -222 899 0
-106 -222 -899 0
899 338 -454 0
-899 338 454 0
899 -338 454 0
-899 -338 -454 0
338 -900 0
899 -900 0
-338 -899 900 0
222 -901 0
106 -901 0
-222 -106 901 0
-900 571 0
-901 571 0
900 901 -571 0
107 223 -902 0
-107 223 902 0
107 -223 902 0
-107 -223 -902 0
902 339 -455 0
-902 339 455 0
902 -339 455 0
-902 -339 -455 0
339 -903 0
902 -903 0
-339 -902 903 0
223 -904 0
107 -904 0
-223 -107 904 0
-903 572 0
-904 572 0
903 904 -572 0
108 224 -905 0
-108 224 905 0
108 -224 905 0
-108 -224 -905 0
905 340 -456 0
-905 340 456 0
905 -340 456 0
-905 -340 -456 0
340 -906 0
905 -906 0
-340 -905 906 0
224 -907 0
108 -907 0
-224 -108 907 0
-906 573 0
-907 573 0
906 907 -573 0
109 225 -908 0
-109 225 908 0
109 -225 908 0
-109 -225 -908 0
908 341 -457 0
-908 341 457 0
908 -341 457 0
-908 -341 -457 0
341 -909 0
908 -909 0
-341 -908 909 0
225 -910 0
109 -910 0
-225 -109 910 0
-909 574 0
-910 574 0
909 910 -574 0
110 226 -911 0
-110 226 911 0
110 -226 911 0
-110 -226 -911 0
911 342 -458 0
-911 342 458 0
911 -342 458 0
-911 -342 -458 0
342 -912 0
911 -912 0
-342 -911 912 0
226 -913 0
110 -913 0
-226 -110 913 0
-912 575 0
-913 575 0
912 913 -575 0
111 227 -914 0
-111 227 914 0
111 -227 914 0
-111 -227 -914 0
914 343 -459 0
-914 343 459 0
914 -343 459 0
-914 -343 -459 0
343 -915 0
914 -915 0
-343 -914 915 0
227 -916 0
111 -916 0
-227 -111 916 0
-915 576 0
-916 576 0
915 916 -576 0
112 228 -917 0
-112 228 917 0
112 -228 917 0
-112 -228 -917 0
917 344 -460 0
-917 344 460 0
917 -344 460 0
-917 -344 -460 0
344 -918 0
917 -918 0
-344 -917 918 0
228 -919 0
112 -919 0
-228 -112 919 0
-918 577 0
-919 577 0
918 919 -577 0
113 229 -920 0
-113 229 920 0
113 -229 920 0
-113 -229 -920 0
920 345 -461 0
-920 345 461 0
920 -345 461 0
-920 -345 -461 0
345 -921 0
920 -921 0
-345 -920 921 0
229 -922 0
113 -922 0
-229 -113 922 0
-921 578 0
-922 578 0
921 922 -578 0
114 230 -923 0
-114 230 923 0
114 -230 923 0
-114 -230 -923 0
923 346 -462 0
-923 346 462 0
923 -346 462 0
-923 -346 -462 0
346 -924 0
923 -924 0
-346 -923 924 0
230 -925 0
114 -925 0
-230 -114 925 0
-924 579 0
-925 579 0
924 925 -579 0
115 231 -926 0
-115 231 926 0
115 -231 926 0
-115 -231 -926 0
926 347 -463 0
-926 347 463 0
926 -347 463 0
-926 -347 -463 0
347 -927 0
926 -927 0
-347 -926 927 0
231 -928 0
115 -928 0
-231 -115 928 0
-927 580 0
-928 580 0
927 928 -580 0
116 232 -929 0
-116 232 929 0
116 -232 929 0
-116 -232 -929 0
929 348 -464 0
-929 348 464 0
929 -348 464 0
-929 -348 -464 0
348 -930 0
929 -930 0
-348 -929 930 0
232 -931 0
116 -931 0
-232 -116 931 0
-930 581 0
-931 581 0
930 931 -581 0
